p cnf 10 50
8 2 -10 0
8 -3 -4 0
1 9 6 0
3 2 -4 0
6 -5 2 0
-4 -9 5 0
8 -9 3 0
8 -5 3 0
7 -2 9 0
3 2 1 0
-2 -8 -10 0
3 -10 -2 0
-10 -2 5 0
-4 7 -3 0
-3 4 -9 0
3 1 -5 0
4 1 -6 0
-9 -10 2 0
3 -9 6 0
1 6 10 0
-9 2 -5 0
-3 9 5 0
-8 -3 9 0
-8 -1 10 0
4 6 -3 0
9 3 -2 0
-6 9 7 0
3 2 -4 0
-10 -6 -1 0
-3 7 -4 0
8 2 7 0
5 -7 -6 0
-10 5 9 0
5 -2 9 0
5 9 6 0
-4 -10 -2 0
3 -10 6 0
6 -7 -4 0
-8 -1 -10 0
-1 6 -2 0
-5 7 1 0
-7 3 -1 0
-6 -3 -2 0
10 -3 9 0
-1 -10 2 0
9 4 -1 0
-10 1 4 0
3 10 -8 0
-2 5 -3 0
-9 -4 -3 0